RAW/CMTX/fspd-long/CMT8X.vrp_seed-6.out
865.5016884	0.183	414.271
