RAW/CMTX/fspd-long/CMT8X.vrp_seed-6.sol
Route #1: 26 4 56 23 67 39 25 55 54
Route #2: 18 82 8 46 45 17 84 83 60 89
Route #3: 12 80 68 24 29 34 78 79 3 77 76 28
Route #4: 27 69 70 30 32 90 63 10 31
Route #5: 58 2 57 15 41 22 75 74 72 73 21 40 53
Route #6: 6 96 99 59 93 85 91 100 37 98 92 97 95 94
Route #7: 5 61 16 86 38 44 14 43 42 87 13
Route #8: 52 7 48 47 36 49 64 11 19 62 88
Route #9: 50 33 81 9 35 71 65 66 20 51 1
Cost 865.501688